0 2118
1 1897
2 1897
3 1816
4 1800
5 1748
6 1660
7 1660
8 1598
9 1496
10 1496
11 1496
12 1454
13 1431
14 1431
15 1431
16 1431
17 1359
18 1359
19 1359
20 1359
21 1359
22 1335
23 1335
24 1335
25 1301
26 1301
27 1301
28 1232
29 1232
30 1232
31 1232
32 1201
33 1198
34 1198
35 1198
36 1187
37 1186
38 1171
39 1168
40 1149
41 1146
42 1144
43 1141
44 1141
45 1141
46 1106
47 1106
48 1106
49 1106
50 1106
51 1106
52 1106
53 1090
54 1090
55 1090
56 1086
57 1079
58 1070
59 1070
60 1070
61 1070
62 1070
63 1070
64 1064
65 1061
66 1060
67 1060
68 1049
69 1048
70 1042
71 1042
72 1042
73 1042
74 1038
75 1038
76 1008
77 1008
78 1008
79 1008
80 1008
81 1008
82 1006
83 1006
84 1003
85 1003
86 998
87 998
88 998
89 998
90 998
91 998
92 998
93 998
94 998
95 998
96 998
97 998
98 994
99 994
100 994
101 994
102 992
103 992
104 992
105 988
106 988
107 988
108 988
109 988
110 988
111 988
112 988
113 988
114 988
115 988
116 988
117 988
118 988
119 988
120 988
121 988
122 988
123 988
124 988
125 988
126 988
127 988
128 988
129 988
130 988
131 988
132 988
133 988
134 988
135 988
136 988
137 988
138 988
139 988
140 988
141 988
142 988
143 988
144 988
145 988
146 988
147 988
148 988
149 988
150 988
151 988
152 988
153 988
154 988
155 988
156 988
157 988
158 988
159 988
160 988
161 988
162 988
163 988
164 988
165 988
166 988
167 988
168 988
169 988
170 988
171 988
172 988
173 988
174 988
175 988
176 988
177 988
178 988
179 988
180 988
181 988
182 988
183 988
184 988
185 988
186 988
187 988
188 988
189 988
190 988
191 988
192 988
193 988
194 988
195 988
196 988
197 988
198 988
199 988
200 988
201 988
202 988
203 988
204 988
205 988
206 988
207 988
208 988
209 988
210 988
211 988
212 988
213 988
214 988
215 988
216 988
217 988
218 988
219 988
220 988
221 988
222 988
223 988
224 988
225 988
226 988
227 988
228 988
229 988
230 988
231 988
232 988
233 988
234 988
235 988
236 988
237 988
238 988
239 988
240 988
241 988
242 988
243 988
244 988
245 988
246 988
247 988
248 988
249 988
250 988
251 988
252 988
253 988
254 988
255 988
256 988
257 988
258 988
259 988
260 988
261 988
262 988
263 988
264 988
265 988
266 988
267 988
268 988
269 988
270 988
271 988
272 988
273 988
274 988
275 988
276 988
277 988
278 988
279 988
280 988
281 988
282 988
283 988
284 988
285 988
286 988
287 988
288 988
289 988
290 988
291 988
292 988
293 988
294 988
295 988
296 988
297 988
298 988
299 988
300 988
301 988
302 988
303 988
304 988
305 988
306 988
307 988
308 988
309 988
310 988
311 988
312 988
313 988
314 988
315 988
316 988
317 988
318 988
319 988
320 988
321 988
322 988
323 988
324 988
325 988
326 988
327 988
328 988
329 988
330 988
331 988
332 988
333 988
334 988
335 988
336 988
337 988
338 988
339 988
340 988
341 988
342 988
343 988
344 988
345 988
346 988
347 988
348 988
349 988
350 988
351 988
352 988
353 988
354 988
355 988
356 988
357 988
358 988
359 988
360 988
361 988
362 988
363 988
364 988
365 988
366 988
367 988
368 988
369 988
370 988
371 988
372 988
373 988
374 988
375 988
376 988
377 988
378 988
379 988
380 988
381 988
382 988
383 988
384 988
385 988
386 988
387 988
388 988
389 988
390 988
391 988
392 988
393 988
394 988
395 988
396 988
397 988
398 988
399 988
400 988
401 988
402 988
403 988
404 988
405 988
406 988
407 988
408 988
409 988
410 988
411 988
412 988
413 988
414 988
415 988
416 988
417 988
418 988
419 988
420 988
421 988
422 988
423 988
424 988
425 988
426 988
427 988
428 988
429 988
430 988
431 988
432 988
433 988
434 988
435 988
436 988
437 988
438 988
439 988
440 988
441 988
442 988
443 988
444 988
445 988
446 988
447 988
448 988
449 988
450 988
451 988
452 988
453 988
454 988
455 988
456 988
457 988
458 988
459 988
460 988
461 988
462 988
463 988
464 988
465 988
466 988
467 988
468 988
469 988
470 988
471 988
472 988
473 988
474 988
475 988
476 988
477 988
478 988
479 988
480 988
481 988
482 988
483 988
484 988
485 988
486 988
487 988
488 988
489 988
490 988
491 988
492 988
493 988
494 988
495 988
496 988
497 988
498 988
499 988
500 988
501 988
502 988
503 988
504 988
505 988
506 988
507 988
508 988
509 988
510 988
511 988
512 988
513 988
514 988
515 988
516 988
517 988
518 988
519 988
520 988
521 988
522 988
523 988
524 988
525 988
526 988
527 988
528 988
529 988
530 988
531 988
532 988
533 988
534 988
535 988
536 988
537 988
538 988
539 988
540 988
541 988
542 988
543 988
544 988
545 988
546 988
547 988
548 988
549 988
550 988
551 988
552 988
553 988
554 988
555 988
556 988
557 988
558 988
559 988
560 988
561 988
562 988
563 988
564 988
565 988
566 988
567 988
568 988
569 988
570 988
571 988
572 988
573 988
574 988
575 988
576 988
577 988
578 988
579 988
580 988
581 988
582 988
583 988
584 988
585 988
586 988
587 988
588 988
589 988
590 988
591 988
592 988
593 988
594 988
595 988
596 988
597 988
598 988
599 988
600 988
601 988
602 988
603 988
604 988
605 988
606 988
607 988
608 988
609 988
610 988
611 988
612 988
613 988
614 988
615 988
616 988
617 988
618 988
619 988
620 988
621 988
622 988
623 988
624 988
625 988
626 966
627 966
628 966
629 966
630 966
631 966
632 966
633 966
634 963
635 963
636 963
637 963
638 963
639 963
640 963
641 960
642 960
643 960
644 960
645 952
646 952
647 952
648 952
649 952
650 947
651 947
652 947
653 947
654 947
655 947
656 947
657 947
658 947
659 947
660 947
661 947
662 947
663 947
664 947
665 947
666 947
667 947
668 947
669 945
670 944
671 944
672 944
673 944
674 944
675 944
676 944
677 944
678 944
679 944
680 944
681 944
682 944
683 944
684 944
685 944
686 944
687 944
688 944
689 944
690 944
691 944
692 944
693 944
694 944
695 944
696 944
697 944
698 944
699 944
700 944
701 944
702 944
703 944
704 944
705 944
706 944
707 944
708 944
709 944
710 944
711 944
712 944
713 944
714 944
715 944
716 944
717 944
718 944
719 944
720 944
721 944
722 944
723 944
724 944
725 944
726 944
727 944
728 944
729 944
730 944
731 944
732 944
733 944
734 944
735 944
736 944
737 944
738 944
739 944
740 944
741 944
742 944
743 944
744 944
745 944
746 944
747 944
748 944
749 944
750 944
751 944
752 944
753 944
754 944
755 944
756 944
757 944
758 944
759 944
760 944
761 944
762 944
763 944
764 944
765 944
766 944
767 944
768 944
769 944
770 944
771 944
772 944
773 944
774 944
775 944
776 944
777 944
778 944
779 944
780 944
781 944
782 944
783 944
784 944
785 944
786 944
787 944
788 944
789 944
790 944
791 944
792 944
793 944
794 944
795 944
796 944
797 944
798 944
799 944
800 944
801 944
802 944
803 944
804 944
805 944
806 944
807 944
808 944
809 944
810 944
811 944
812 944
813 944
814 944
815 944
816 944
817 944
818 944
819 944
820 944
821 944
822 944
823 944
824 944
825 944
826 944
827 944
828 944
829 944
830 944
831 944
832 944
833 944
834 944
835 944
836 944
837 944
838 944
839 944
840 944
841 944
842 944
843 944
844 944
845 944
846 944
847 944
848 944
849 944
850 944
851 944
852 944
853 944
854 944
855 944
856 944
857 944
858 944
859 944
860 944
861 944
862 944
863 944
864 944
865 944
866 944
867 944
868 944
869 944
870 944
871 944
872 944
873 944
874 944
875 944
876 944
877 944
878 944
879 944
880 944
881 944
882 944
883 944
884 944
885 944
886 944
887 944
888 944
889 944
890 944
891 944
892 944
893 944
894 944
895 944
896 944
897 944
898 944
899 944
900 944
901 944
902 944
903 944
904 944
905 944
906 944
907 944
908 944
909 944
910 944
911 944
912 944
913 944
914 944
915 944
916 944
917 944
918 944
919 944
920 944
921 944
922 944
923 944
924 944
925 944
926 944
927 944
928 944
929 944
930 944
931 944
932 944
933 944
934 944
935 944
936 944
937 944
938 944
939 944
940 944
941 944
942 944
943 944
944 944
945 944
946 944
947 944
948 944
949 944
950 944
951 944
952 944
953 944
954 944
955 944
956 944
957 944
958 944
959 944
960 944
961 944
962 944
963 944
964 944
965 944
966 944
967 944
968 944
969 944
970 944
971 944
972 944
973 944
974 944
975 944
976 944
977 944
978 944
979 944
980 944
981 944
982 944
983 944
984 944
985 944
986 944
987 944
988 944
989 944
990 944
991 944
992 944
993 944
994 944
995 944
996 944
997 944
998 944
999 944
Best: [[27,17,22,32,20,18,14],
       [30,16,23,10,12,5,24,4,7],
       [21,6,26,11,28,25,31],
       [13,2,8,3,29,9,19,15]], fitness: 944
